Ca12 Ru8 O28                            
   1.00000000000000     
     5.3677200000000003    0.0000000000000000    0.0000000000000000
     0.0000000000000000    5.5356199999999998    0.0000000000000000
     0.0000000000000000    0.0000000000000000   19.5212900000000005
   Ca   Ru   O 
    12     8    28
Direct
  0.7337966353507852  0.1893216475292974  0.9999997905707758
  0.2662035264573390  0.6893216471401402  0.9999997871722357
  0.2337963771304388  0.1893221078002654  0.4999999784723030
  0.7662033127319248  0.6893221303917088  0.5000000155040354
  0.2430482231622548  0.3081525165056718  0.3112939383408246
  0.7569517539397665  0.8081527997065976  0.6887060683723050
  0.7569514456157194  0.8081524363941739  0.3112939513440338
  0.2430484145714189  0.3081528180139372  0.6887060689962965
  0.7430482928417135  0.3081530981483667  0.8112940533470692
  0.2569512843593103  0.8081518636695861  0.1887061378551493
  0.2569519029889449  0.8081530755170476  0.8112940629574581
  0.7430487634022001  0.3081518757802044  0.1887061406528758
  0.7520248401121137  0.7505099477890482  0.9011763913408544
  0.2479756086959739  0.2505094362605149  0.0988236926444870
  0.2479753511025820  0.2505099466322847  0.9011763931755254
  0.7520245406744550  0.7505094440305982  0.0988236936214761
  0.2520244548008463  0.7505098803179067  0.4011763218264406
  0.7479753581128463  0.2505099728670359  0.5988236097412383
  0.7479751607292613  0.2505098900457270  0.4011763105065498
  0.2520246632162397  0.7505099545537206  0.5988236189468381
  0.8224647974762291  0.2287107133999129  0.6988564714221610
  0.1775349975648481  0.7287104410726499  0.3011433682341220
  0.1775353194211959  0.7287106812653761  0.6988564813805951
  0.8224647526147066  0.2287104401117190  0.3011434038185570
  0.3224647535188083  0.2287101061945336  0.1988566628615303
  0.6775351518724761  0.7287104051241968  0.8011435475240773
  0.6775352997735382  0.7287100864332743  0.1988566636615801
  0.3224650200411006  0.2287104266641222  0.8011435515975194
  0.3413781836383691  0.7725560965101579  0.4999999840938401
  0.6586217041109066  0.2725560510465925  0.5000000003630305
  0.8413784954732861  0.7725557027567405  0.0000000281796417
  0.1586216849747828  0.2725556891329006  0.0000000266377569
  0.4456672232081687  0.9487113847076358  0.0800439367220349
  0.5543333980525773  0.4487114679475468  0.9199561981177951
  0.5543329326096398  0.4487113891258971  0.0800439365007151
  0.4456667767421649  0.9487114558826519  0.9199561963605589
  0.9456671652607511  0.9487118337706519  0.5800438821171170
  0.0543326924981997  0.4487119255568146  0.4199560778406237
  0.0543328830448928  0.4487118565401147  0.5800438893283584
  0.9456669847903498  0.9487119294708819  0.4199560550126122
  0.9485541714667391  0.0471215490469561  0.1179042463368987
  0.0514467281129285  0.5471225363326653  0.8820957673667493
  0.0514459431246550  0.5471215390247508  0.1179042439388667
  0.9485534150313271  0.0471225540131073  0.8820957682712702
  0.4485537460678017  0.0471223968841912  0.6179040817235872
  0.5514459961815703  0.5471221981669601  0.3820957092387758
  0.5514462732615826  0.5471225069551124  0.6179040669396230
  0.4485536000702339  0.0471221477681141  0.3820957290212519
 
  0.00000000E+00  0.00000000E+00  0.00000000E+00
  0.00000000E+00  0.00000000E+00  0.00000000E+00
  0.00000000E+00  0.00000000E+00  0.00000000E+00
  0.00000000E+00  0.00000000E+00  0.00000000E+00
  0.00000000E+00  0.00000000E+00  0.00000000E+00
  0.00000000E+00  0.00000000E+00  0.00000000E+00
  0.00000000E+00  0.00000000E+00  0.00000000E+00
  0.00000000E+00  0.00000000E+00  0.00000000E+00
  0.00000000E+00  0.00000000E+00  0.00000000E+00
  0.00000000E+00  0.00000000E+00  0.00000000E+00
  0.00000000E+00  0.00000000E+00  0.00000000E+00
  0.00000000E+00  0.00000000E+00  0.00000000E+00
  0.00000000E+00  0.00000000E+00  0.00000000E+00
  0.00000000E+00  0.00000000E+00  0.00000000E+00
  0.00000000E+00  0.00000000E+00  0.00000000E+00
  0.00000000E+00  0.00000000E+00  0.00000000E+00
  0.00000000E+00  0.00000000E+00  0.00000000E+00
  0.00000000E+00  0.00000000E+00  0.00000000E+00
  0.00000000E+00  0.00000000E+00  0.00000000E+00
  0.00000000E+00  0.00000000E+00  0.00000000E+00
  0.00000000E+00  0.00000000E+00  0.00000000E+00
  0.00000000E+00  0.00000000E+00  0.00000000E+00
  0.00000000E+00  0.00000000E+00  0.00000000E+00
  0.00000000E+00  0.00000000E+00  0.00000000E+00
  0.00000000E+00  0.00000000E+00  0.00000000E+00
  0.00000000E+00  0.00000000E+00  0.00000000E+00
  0.00000000E+00  0.00000000E+00  0.00000000E+00
  0.00000000E+00  0.00000000E+00  0.00000000E+00
  0.00000000E+00  0.00000000E+00  0.00000000E+00
  0.00000000E+00  0.00000000E+00  0.00000000E+00
  0.00000000E+00  0.00000000E+00  0.00000000E+00
  0.00000000E+00  0.00000000E+00  0.00000000E+00
  0.00000000E+00  0.00000000E+00  0.00000000E+00
  0.00000000E+00  0.00000000E+00  0.00000000E+00
  0.00000000E+00  0.00000000E+00  0.00000000E+00
  0.00000000E+00  0.00000000E+00  0.00000000E+00
  0.00000000E+00  0.00000000E+00  0.00000000E+00
  0.00000000E+00  0.00000000E+00  0.00000000E+00
  0.00000000E+00  0.00000000E+00  0.00000000E+00
  0.00000000E+00  0.00000000E+00  0.00000000E+00
  0.00000000E+00  0.00000000E+00  0.00000000E+00
  0.00000000E+00  0.00000000E+00  0.00000000E+00
  0.00000000E+00  0.00000000E+00  0.00000000E+00
  0.00000000E+00  0.00000000E+00  0.00000000E+00
  0.00000000E+00  0.00000000E+00  0.00000000E+00
  0.00000000E+00  0.00000000E+00  0.00000000E+00
  0.00000000E+00  0.00000000E+00  0.00000000E+00
  0.00000000E+00  0.00000000E+00  0.00000000E+00
