Ca12 Ru8 O28                            
   1.00000000000000     
     5.3677200000000003    0.0000000000000000    0.0000000000000000
     0.0000000000000000    5.5356199999999998    0.0000000000000000
     0.0000000000000000    0.0000000000000000   19.5212900000000005
   Ca   Ru   O 
    12     8    28
Direct
  0.7337966353507857  0.1893216475292943 -0.0000002094292244
  0.2662035264573386  0.6893216471401395 -0.0000002128277671
  0.2337963771304397  0.1893221078002619  0.4999999784723055
  0.7662033127319274  0.6893221303917089  0.5000000155040384
  0.2430482231622557  0.3081525165056696  0.3112939383408228
  0.7569517539397663  0.8081527997065983  0.6887060683723031
  0.7569514456157179  0.8081524363941718  0.3112939513440326
  0.2430484145714202  0.3081528180139357  0.6887060689962984
  0.7430482928417147  0.3081530981483697  0.8112940533470678
  0.2569512843593134  0.8081518636695849  0.1887061378551511
  0.2569519029889452  0.8081530755170446  0.8112940629574575
  0.7430487634021996  0.3081518757802035  0.1887061406528724
  0.7520248401121165  0.7505099477890480  0.9011763913408556
  0.2479756086959743  0.2505094362605117  0.0988236926444877
  0.2479753511025836  0.2505099466322840  0.9011763931755239
  0.7520245406744542  0.7505094440305997  0.0988236936214785
  0.2520244548008494  0.7505098803179093  0.4011763218264400
  0.7479753581128450  0.2505099728670331  0.5988236097412386
  0.7479751607292635  0.2505098900457238  0.4011763105065486
  0.2520246632162420  0.7505099545537192  0.5988236189468351
  0.8224647974762276  0.2287107133999107  0.6988564714221615
  0.1775349975648479  0.7287104410726482  0.3011433682341204
  0.1775353194211969  0.7287106812653791  0.6988564813805921
  0.8224647526147034  0.2287104401117164  0.3011434038185591
  0.3224647535188096  0.2287101061945305  0.1988566628615279
  0.6775351518724755  0.7287104051241934  0.8011435475240757
  0.6775352997735351  0.7287100864332746  0.1988566636615811
  0.3224650200411038  0.2287104266641208  0.8011435515975215
  0.3413781836383706  0.7725560965101570  0.4999999840938416
  0.6586217041109041  0.2725560510465920  0.5000000003630327
  0.8413784954732888  0.7725557027567401  0.0000000281796387
  0.1586216849747806  0.2725556891329001  0.0000000266377597
  0.4456672232081696  0.9487113847076356  0.0800439367220368
  0.5543333980525804  0.4487114679475458  0.9199561981177943
  0.5543329326096431  0.4487113891258948  0.0800439365007120
  0.4456667767421678  0.9487114558826540  0.9199561963605619
  0.9456671652607529  0.9487118337706545  0.5800438821171148
  0.0543326924982029  0.4487119255568169  0.4199560778406248
  0.0543328830448917  0.4487118565401165  0.5800438893283580
  0.9456669847903475  0.9487119294708849  0.4199560550126125
  0.9485541714667372  0.0471215490469588  0.1179042463368970
  0.0514467281129257  0.5471225363326664  0.8820957673667521
  0.0514459431246568  0.5471215390247505  0.1179042439388632
  0.9485534150313293  0.0471225540131092  0.8820957682712720
  0.4485537460678041  0.0471223968841936  0.6179040817235905
  0.5514459961815698  0.5471221981669632  0.3820957092387792
  0.5514462732615829  0.5471225069551124  0.6179040669396214
  0.4485536000702348  0.0471221477681154  0.3820957290212548
 
  0.00000000E+00  0.00000000E+00  0.00000000E+00
  0.00000000E+00  0.00000000E+00  0.00000000E+00
  0.00000000E+00  0.00000000E+00  0.00000000E+00
  0.00000000E+00  0.00000000E+00  0.00000000E+00
  0.00000000E+00  0.00000000E+00  0.00000000E+00
  0.00000000E+00  0.00000000E+00  0.00000000E+00
  0.00000000E+00  0.00000000E+00  0.00000000E+00
  0.00000000E+00  0.00000000E+00  0.00000000E+00
  0.00000000E+00  0.00000000E+00  0.00000000E+00
  0.00000000E+00  0.00000000E+00  0.00000000E+00
  0.00000000E+00  0.00000000E+00  0.00000000E+00
  0.00000000E+00  0.00000000E+00  0.00000000E+00
  0.00000000E+00  0.00000000E+00  0.00000000E+00
  0.00000000E+00  0.00000000E+00  0.00000000E+00
  0.00000000E+00  0.00000000E+00  0.00000000E+00
  0.00000000E+00  0.00000000E+00  0.00000000E+00
  0.00000000E+00  0.00000000E+00  0.00000000E+00
  0.00000000E+00  0.00000000E+00  0.00000000E+00
  0.00000000E+00  0.00000000E+00  0.00000000E+00
  0.00000000E+00  0.00000000E+00  0.00000000E+00
  0.00000000E+00  0.00000000E+00  0.00000000E+00
  0.00000000E+00  0.00000000E+00  0.00000000E+00
  0.00000000E+00  0.00000000E+00  0.00000000E+00
  0.00000000E+00  0.00000000E+00  0.00000000E+00
  0.00000000E+00  0.00000000E+00  0.00000000E+00
  0.00000000E+00  0.00000000E+00  0.00000000E+00
  0.00000000E+00  0.00000000E+00  0.00000000E+00
  0.00000000E+00  0.00000000E+00  0.00000000E+00
  0.00000000E+00  0.00000000E+00  0.00000000E+00
  0.00000000E+00  0.00000000E+00  0.00000000E+00
  0.00000000E+00  0.00000000E+00  0.00000000E+00
  0.00000000E+00  0.00000000E+00  0.00000000E+00
  0.00000000E+00  0.00000000E+00  0.00000000E+00
  0.00000000E+00  0.00000000E+00  0.00000000E+00
  0.00000000E+00  0.00000000E+00  0.00000000E+00
  0.00000000E+00  0.00000000E+00  0.00000000E+00
  0.00000000E+00  0.00000000E+00  0.00000000E+00
  0.00000000E+00  0.00000000E+00  0.00000000E+00
  0.00000000E+00  0.00000000E+00  0.00000000E+00
  0.00000000E+00  0.00000000E+00  0.00000000E+00
  0.00000000E+00  0.00000000E+00  0.00000000E+00
  0.00000000E+00  0.00000000E+00  0.00000000E+00
  0.00000000E+00  0.00000000E+00  0.00000000E+00
  0.00000000E+00  0.00000000E+00  0.00000000E+00
  0.00000000E+00  0.00000000E+00  0.00000000E+00
  0.00000000E+00  0.00000000E+00  0.00000000E+00
  0.00000000E+00  0.00000000E+00  0.00000000E+00
  0.00000000E+00  0.00000000E+00  0.00000000E+00
