Ca12 Ru8 O28                            
   1.00000000000000     
     5.3637610999999996    0.0000000000000000    0.0000000000000000
     0.0000000000000000    5.5325600000000001    0.0000000000000000
     0.0000000000000000    0.0000000000000000   19.5378919999999994
   Ca   Ru   O 
    12     8    28
Direct
  0.7339992300626150  0.1893775127833592  0.0000003117115170
  0.2660010800022476  0.6893773129679985  0.9999998189988091
  0.2339998409380115  0.1893788704830399  0.4999994795051919
  0.7659993811495553  0.6893791331149117  0.5000001431161252
  0.2429492183632007  0.3080995919648757  0.3112745785089928
  0.7570517254306210  0.8080951459955728  0.6887251614565741
  0.7570560868610414  0.8081053884936154  0.3112761395156483
  0.2429431444204297  0.3080995934385982  0.6887238394855615
  0.7429417875909792  0.3080985279671040  0.8112764319888228
  0.2570574474919738  0.8081011669761793  0.1887236829762742
  0.2570502448961776  0.8080973423324878  0.8112766056510878
  0.7429503326634190  0.3081014074332202  0.1887232865458728
  0.7520339614751848  0.7505084928625934  0.9011868507600980
  0.2479667376256103  0.2505100206482282  0.0988135232883351
  0.2479614621386688  0.2505094430294434  0.9011856228625703
  0.7520387363359404  0.7505124247425954  0.0988149428383664
  0.2520367909639916  0.7505125621199014  0.4011853942227717
  0.7479624695529594  0.2505092137097193  0.5988141500891047
  0.7479644312189464  0.2505151262116669  0.4011851024726809
  0.2520353429171038  0.7505106775950168  0.5988143897959901
  0.8217486226537147  0.2289493165449556  0.6988403125148821
  0.1782502311566461  0.7289528226120439  0.3011595684172903
  0.1782454753265412  0.7289540619074941  0.6988427822450944
  0.8217562339408033  0.2289669533558225  0.3011568310651285
  0.3217708441769460  0.2289430105295196  0.1988397122749177
  0.6782304376735340  0.7289407169764957  0.8011603673267729
  0.6782503963986883  0.7289653331290680  0.1988413476292479
  0.3217480177294618  0.2289511348652837  0.8011598439936094
  0.3402393535820636  0.7715790075826874  0.4999986356648023
  0.6597599546901591  0.2715782819789894  0.5000008953367256
  0.8402422648687988  0.7715784854661152  0.0000020000176661
  0.1597580946759791  0.2715787721123277  0.9999984210416031
  0.4453211457738604  0.9485709838586374  0.0800989759596078
  0.5546792136828032  0.4485695853871619  0.9199009514273584
  0.5546774962463488  0.4485652593356164  0.0800998240243018
  0.4453232597305785  0.9485636923364922  0.9199006297746593
  0.9453225251018011  0.9485623557300400  0.5800999810234444
  0.0546774240016106  0.4485651372241080  0.4199000217254110
  0.0546808730378245  0.4485697323637226  0.5801003382963401
  0.9453182394793487  0.9485728037195642  0.4198991655326765
  0.9479325651917776  0.0475399734708333  0.1177515156433984
  0.0520687207045967  0.5475386153899677  0.8822489096184967
  0.0520814108860534  0.5475299721543649  0.1177525389521819
  0.9479177479576890  0.0475291162348910  0.8822479713461107
  0.4479185875645371  0.0475319222735493  0.6177514268726441
  0.5520808241530020  0.5475354717429042  0.3822483322050871
  0.5520718012248267  0.5475398942974437  0.6177513424046595
  0.4479287862913282  0.0475426325497779  0.3822479018754947
 
  0.00000000E+00  0.00000000E+00  0.00000000E+00
  0.00000000E+00  0.00000000E+00  0.00000000E+00
  0.00000000E+00  0.00000000E+00  0.00000000E+00
  0.00000000E+00  0.00000000E+00  0.00000000E+00
  0.00000000E+00  0.00000000E+00  0.00000000E+00
  0.00000000E+00  0.00000000E+00  0.00000000E+00
  0.00000000E+00  0.00000000E+00  0.00000000E+00
  0.00000000E+00  0.00000000E+00  0.00000000E+00
  0.00000000E+00  0.00000000E+00  0.00000000E+00
  0.00000000E+00  0.00000000E+00  0.00000000E+00
  0.00000000E+00  0.00000000E+00  0.00000000E+00
  0.00000000E+00  0.00000000E+00  0.00000000E+00
  0.00000000E+00  0.00000000E+00  0.00000000E+00
  0.00000000E+00  0.00000000E+00  0.00000000E+00
  0.00000000E+00  0.00000000E+00  0.00000000E+00
  0.00000000E+00  0.00000000E+00  0.00000000E+00
  0.00000000E+00  0.00000000E+00  0.00000000E+00
  0.00000000E+00  0.00000000E+00  0.00000000E+00
  0.00000000E+00  0.00000000E+00  0.00000000E+00
  0.00000000E+00  0.00000000E+00  0.00000000E+00
  0.00000000E+00  0.00000000E+00  0.00000000E+00
  0.00000000E+00  0.00000000E+00  0.00000000E+00
  0.00000000E+00  0.00000000E+00  0.00000000E+00
  0.00000000E+00  0.00000000E+00  0.00000000E+00
  0.00000000E+00  0.00000000E+00  0.00000000E+00
  0.00000000E+00  0.00000000E+00  0.00000000E+00
  0.00000000E+00  0.00000000E+00  0.00000000E+00
  0.00000000E+00  0.00000000E+00  0.00000000E+00
  0.00000000E+00  0.00000000E+00  0.00000000E+00
  0.00000000E+00  0.00000000E+00  0.00000000E+00
  0.00000000E+00  0.00000000E+00  0.00000000E+00
  0.00000000E+00  0.00000000E+00  0.00000000E+00
  0.00000000E+00  0.00000000E+00  0.00000000E+00
  0.00000000E+00  0.00000000E+00  0.00000000E+00
  0.00000000E+00  0.00000000E+00  0.00000000E+00
  0.00000000E+00  0.00000000E+00  0.00000000E+00
  0.00000000E+00  0.00000000E+00  0.00000000E+00
  0.00000000E+00  0.00000000E+00  0.00000000E+00
  0.00000000E+00  0.00000000E+00  0.00000000E+00
  0.00000000E+00  0.00000000E+00  0.00000000E+00
  0.00000000E+00  0.00000000E+00  0.00000000E+00
  0.00000000E+00  0.00000000E+00  0.00000000E+00
  0.00000000E+00  0.00000000E+00  0.00000000E+00
  0.00000000E+00  0.00000000E+00  0.00000000E+00
  0.00000000E+00  0.00000000E+00  0.00000000E+00
  0.00000000E+00  0.00000000E+00  0.00000000E+00
  0.00000000E+00  0.00000000E+00  0.00000000E+00
  0.00000000E+00  0.00000000E+00  0.00000000E+00
