Ca12 Ru8 O28                            
   1.00000000000000     
     5.3637610999999996    0.0000000000000000    0.0000000000000000
     0.0000000000000000    5.5325600000000001    0.0000000000000000
     0.0000000000000000    0.0000000000000000   19.5378919999999994
   Ca   Ru   O 
    12     8    28
Direct
  0.7339992300626119  0.1893775127833596  1.0000003117115153
  0.2660010800022484  0.6893773129680001 -0.0000001810011878
  0.2339998409380126  0.1893788704830371  0.4999994795051940
  0.7659993811495589  0.6893791331149093  0.5000001431161269
  0.2429492183632005  0.3080995919648752  0.3112745785089912
  0.7570517254306233  0.8080951459955731  0.6887251614565713
  0.7570560868610439  0.8081053884936142  0.3112761395156453
  0.2429431444204332  0.3080995934385998  0.6887238394855646
  0.7429417875909805  0.3080985279671035  0.8112764319888249
  0.2570574474919718  0.8081011669761778  0.1887236829762712
  0.2570502448961795  0.8080973423324893  0.8112766056510884
  0.7429503326634188  0.3081014074332227  0.1887232865458714
  0.7520339614751869  0.7505084928625935  0.9011868507600954
  0.2479667376256101  0.2505100206482303  0.0988135232883349
  0.2479614621386720  0.2505094430294413  0.9011856228625702
  0.7520387363359413  0.7505124247425951  0.0988149428383656
  0.2520367909639912  0.7505125621199017  0.4011853942227721
  0.7479624695529565  0.2505092137097203  0.5988141500891020
  0.7479644312189484  0.2505151262116641  0.4011851024726820
  0.2520353429171028  0.7505106775950184  0.5988143897959894
  0.8217486226537166  0.2289493165449570  0.6988403125148818
  0.1782502311566461  0.7289528226120436  0.3011595684172884
  0.1782454753265443  0.7289540619074949  0.6988427822450924
  0.8217562339408000  0.2289669533558236  0.3011568310651299
  0.3217708441769448  0.2289430105295172  0.1988397122749174
  0.6782304376735315  0.7289407169764927  0.8011603673267711
  0.6782503963986908  0.7289653331290692  0.1988413476292504
  0.3217480177294613  0.2289511348652837  0.8011598439936126
  0.3402393535820644  0.7715790075826900  0.4999986356648031
  0.6597599546901572  0.2715782819789925  0.5000008953367284
  0.8402422648688013  0.7715784854661117  1.0000020000176670
  0.1597580946759798  0.2715787721123276 -0.0000015789583955
  0.4453211457738577  0.9485709838586346  0.0800989759596076
  0.5546792136828060  0.4485695853871641  0.9199009514273579
  0.5546774962463491  0.4485652593356134  0.0800998240242997
  0.4453232597305756  0.9485636923364914  0.9199006297746558
  0.9453225251018033  0.9485623557300408  0.5800999810234414
  0.0546774240016120  0.4485651372241096  0.4199000217254118
  0.0546808730378240  0.4485697323637255  0.5801003382963387
  0.9453182394793489  0.9485728037195671  0.4198991655326783
  0.9479325651917759  0.0475399734708358  0.1177515156433990
  0.0520687207045999  0.5475386153899665  0.8822489096184969
  0.0520814108860542  0.5475299721543645  0.1177525389521826
  0.9479177479576919  0.0475291162348880  0.8822479713461114
  0.4479185875645382  0.0475319222735497  0.6177514268726405
  0.5520808241530043  0.5475354717429017  0.3822483322050843
  0.5520718012248289  0.5475398942974470  0.6177513424046597
  0.4479287862913272  0.0475426325497794  0.3822479018754914
 
  0.00000000E+00  0.00000000E+00  0.00000000E+00
  0.00000000E+00  0.00000000E+00  0.00000000E+00
  0.00000000E+00  0.00000000E+00  0.00000000E+00
  0.00000000E+00  0.00000000E+00  0.00000000E+00
  0.00000000E+00  0.00000000E+00  0.00000000E+00
  0.00000000E+00  0.00000000E+00  0.00000000E+00
  0.00000000E+00  0.00000000E+00  0.00000000E+00
  0.00000000E+00  0.00000000E+00  0.00000000E+00
  0.00000000E+00  0.00000000E+00  0.00000000E+00
  0.00000000E+00  0.00000000E+00  0.00000000E+00
  0.00000000E+00  0.00000000E+00  0.00000000E+00
  0.00000000E+00  0.00000000E+00  0.00000000E+00
  0.00000000E+00  0.00000000E+00  0.00000000E+00
  0.00000000E+00  0.00000000E+00  0.00000000E+00
  0.00000000E+00  0.00000000E+00  0.00000000E+00
  0.00000000E+00  0.00000000E+00  0.00000000E+00
  0.00000000E+00  0.00000000E+00  0.00000000E+00
  0.00000000E+00  0.00000000E+00  0.00000000E+00
  0.00000000E+00  0.00000000E+00  0.00000000E+00
  0.00000000E+00  0.00000000E+00  0.00000000E+00
  0.00000000E+00  0.00000000E+00  0.00000000E+00
  0.00000000E+00  0.00000000E+00  0.00000000E+00
  0.00000000E+00  0.00000000E+00  0.00000000E+00
  0.00000000E+00  0.00000000E+00  0.00000000E+00
  0.00000000E+00  0.00000000E+00  0.00000000E+00
  0.00000000E+00  0.00000000E+00  0.00000000E+00
  0.00000000E+00  0.00000000E+00  0.00000000E+00
  0.00000000E+00  0.00000000E+00  0.00000000E+00
  0.00000000E+00  0.00000000E+00  0.00000000E+00
  0.00000000E+00  0.00000000E+00  0.00000000E+00
  0.00000000E+00  0.00000000E+00  0.00000000E+00
  0.00000000E+00  0.00000000E+00  0.00000000E+00
  0.00000000E+00  0.00000000E+00  0.00000000E+00
  0.00000000E+00  0.00000000E+00  0.00000000E+00
  0.00000000E+00  0.00000000E+00  0.00000000E+00
  0.00000000E+00  0.00000000E+00  0.00000000E+00
  0.00000000E+00  0.00000000E+00  0.00000000E+00
  0.00000000E+00  0.00000000E+00  0.00000000E+00
  0.00000000E+00  0.00000000E+00  0.00000000E+00
  0.00000000E+00  0.00000000E+00  0.00000000E+00
  0.00000000E+00  0.00000000E+00  0.00000000E+00
  0.00000000E+00  0.00000000E+00  0.00000000E+00
  0.00000000E+00  0.00000000E+00  0.00000000E+00
  0.00000000E+00  0.00000000E+00  0.00000000E+00
  0.00000000E+00  0.00000000E+00  0.00000000E+00
  0.00000000E+00  0.00000000E+00  0.00000000E+00
  0.00000000E+00  0.00000000E+00  0.00000000E+00
  0.00000000E+00  0.00000000E+00  0.00000000E+00
